CUST NO.   XCOORD.   YCOORD.   DEMAND    READY TIME   DUE DATE   SERVICE TIME
    1      40.00      50.00       0.00       0.00     960.00       0.00
    2      25.00      85.00      20.00     388.00     911.00      10.00
    3      22.00      75.00      30.00      30.00     546.00      10.00
    4      22.00      85.00      10.00     353.00     708.00      10.00
    5      20.00      80.00      40.00     425.00     913.00      10.00
    6      20.00      85.00      20.00      40.00     630.00      10.00
    7      18.00      75.00      20.00     228.00     667.00      10.00
    8      15.00      75.00      20.00     161.00     558.00      10.00
    9      15.00      80.00      10.00     229.00     624.00      10.00
   10      10.00      35.00      20.00     213.00     648.00      10.00
   11      10.00      40.00      30.00     404.00     753.00      10.00
   12       8.00      40.00      40.00      33.00     511.00      10.00
   13       8.00      45.00      20.00      46.00     519.00      10.00
   14       5.00      35.00      10.00     395.00     911.00      10.00
   15       5.00      45.00      10.00      35.00     697.00      10.00
   16       2.00      40.00      20.00      39.00     528.00      10.00
   17       0.00      40.00      20.00      94.00     535.00      10.00
   18       0.00      45.00      20.00     394.00     909.00      10.00
   19      44.00       5.00      20.00     218.00     571.00      10.00
   20      42.00      10.00      40.00      85.00     542.00      10.00
   21      42.00      15.00      10.00     391.00     802.00      10.00
   22      40.00       5.00      10.00      45.00     517.00      10.00
   23      40.00      15.00      40.00     229.00     640.00      10.00
   24      38.00       5.00      30.00      45.00     523.00      10.00
   25      38.00      15.00      10.00     389.00     914.00      10.00
   26      35.00       5.00      20.00     386.00     904.00      10.00
   27      95.00      30.00      30.00     389.00     788.00      10.00
   28      95.00      35.00      20.00      57.00     600.00      10.00
   29      92.00      30.00      10.00      55.00     575.00      10.00
   30      90.00      35.00      10.00      52.00     536.00      10.00
   31      88.00      30.00      10.00      90.00     521.00      10.00
   32      88.00      35.00      20.00      50.00     534.00      10.00
   33      87.00      30.00      10.00     425.00     898.00      10.00
   34      85.00      25.00      10.00      51.00     602.00      10.00
   35      85.00      35.00      30.00     342.00     751.00      10.00
   36      67.00      85.00      20.00     410.00     905.00      10.00
   37      65.00      85.00      40.00      43.00     617.00      10.00
   38      65.00      82.00      10.00     410.00     823.00      10.00
   39      62.00      80.00      30.00     114.00     561.00      10.00
   40      60.00      80.00      10.00      36.00     658.00      10.00
   41      60.00      85.00      30.00     191.00     586.00      10.00
   42      58.00      75.00      20.00     201.00     670.00      10.00
   43      55.00      80.00      10.00      33.00     568.00      10.00
   44      55.00      85.00      20.00     429.00     838.00      10.00
   45      55.00      82.00      10.00      49.00     504.00      10.00
   46      20.00      82.00      10.00      37.00     597.00      10.00
   47      18.00      80.00      10.00     315.00     782.00      10.00
   48       2.00      45.00      10.00      38.00     606.00      10.00
   49      42.00       5.00      10.00     396.00     904.00      10.00
   50      42.00      12.00      10.00     341.00     658.00      10.00
   51      72.00      35.00      30.00     351.00     782.00      10.00
